c 
c G(k,n,p) graph
c graph gen seed     : 5314
c number of vertices : 60
c max number of edges: 900
c number of classes  : 2
c edge density       : 0.300000
c edge probability   : 0.600000
c data structure     : dense
c
c           Graph Stats
c number of vertices  : 60
c nonisolated vertices: 60
c number of edges     : 523
c edge density        : 0.295480
c max degree          : 24
c avg degree          : 17.43
c min degree          : 13
p col 60 523
e 1 2
e 1 7
e 1 8
e 1 9
e 1 12
e 1 14
e 1 16
e 1 19
e 1 24
e 1 32
e 1 36
e 1 37
e 1 38
e 1 39
e 1 54
e 1 56
e 1 58
e 2 5
e 2 6
e 2 10
e 2 15
e 2 25
e 2 26
e 2 27
e 2 29
e 2 33
e 2 34
e 2 43
e 2 50
e 2 51
e 2 52
e 2 53
e 2 57
e 2 59
e 3 5
e 3 6
e 3 10
e 3 15
e 3 17
e 3 20
e 3 25
e 3 26
e 3 27
e 3 28
e 3 29
e 3 41
e 3 43
e 3 45
e 3 46
e 3 49
e 3 59
e 4 6
e 4 10
e 4 11
e 4 15
e 4 17
e 4 20
e 4 25
e 4 28
e 4 33
e 4 41
e 4 45
e 4 47
e 4 51
e 4 52
e 4 53
e 4 55
e 4 57
e 4 60
e 5 7
e 5 8
e 5 9
e 5 12
e 5 13
e 5 18
e 5 19
e 5 21
e 5 30
e 5 32
e 5 35
e 5 36
e 5 37
e 5 38
e 5 42
e 5 44
e 5 48
e 5 54
e 5 56
e 6 7
e 6 8
e 6 9
e 6 16
e 6 18
e 6 35
e 6 36
e 6 38
e 6 39
e 6 40
e 6 42
e 6 44
e 6 54
e 6 56
e 6 58
e 7 15
e 7 20
e 7 22
e 7 26
e 7 27
e 7 28
e 7 29
e 7 33
e 7 41
e 7 43
e 7 45
e 7 46
e 7 47
e 7 49
e 7 50
e 7 52
e 7 53
e 7 55
e 7 59
e 7 60
e 8 11
e 8 15
e 8 17
e 8 25
e 8 26
e 8 27
e 8 28
e 8 29
e 8 33
e 8 34
e 8 46
e 8 49
e 8 50
e 8 52
e 8 53
e 8 57
e 8 59
e 8 60
e 9 10
e 9 17
e 9 22
e 9 23
e 9 26
e 9 27
e 9 28
e 9 29
e 9 33
e 9 43
e 9 45
e 9 47
e 9 51
e 9 52
e 9 55
e 9 59
e 10 18
e 10 19
e 10 21
e 10 30
e 10 32
e 10 35
e 10 37
e 10 40
e 10 42
e 10 44
e 10 48
e 10 54
e 10 56
e 10 58
e 11 13
e 11 14
e 11 19
e 11 21
e 11 36
e 11 37
e 11 38
e 11 39
e 11 40
e 11 44
e 11 48
e 11 56
e 11 58
e 12 15
e 12 26
e 12 29
e 12 34
e 12 41
e 12 45
e 12 49
e 12 50
e 12 51
e 12 57
e 12 59
e 12 60
e 13 17
e 13 22
e 13 23
e 13 25
e 13 26
e 13 28
e 13 29
e 13 33
e 13 43
e 13 46
e 13 50
e 13 52
e 13 53
e 13 57
e 13 60
e 14 15
e 14 20
e 14 23
e 14 25
e 14 27
e 14 28
e 14 41
e 14 43
e 14 51
e 14 52
e 14 53
e 14 57
e 14 59
e 15 16
e 15 19
e 15 21
e 15 24
e 15 30
e 15 35
e 15 39
e 15 40
e 15 54
e 16 22
e 16 23
e 16 26
e 16 33
e 16 34
e 16 41
e 16 45
e 16 46
e 16 49
e 16 51
e 16 52
e 16 53
e 16 55
e 16 57
e 17 19
e 17 21
e 17 24
e 17 31
e 17 32
e 17 35
e 17 38
e 17 40
e 17 44
e 17 54
e 17 56
e 18 23
e 18 25
e 18 26
e 18 28
e 18 33
e 18 45
e 18 47
e 18 49
e 18 50
e 18 51
e 18 52
e 18 53
e 18 55
e 18 57
e 18 60
e 19 20
e 19 22
e 19 26
e 19 28
e 19 29
e 19 33
e 19 34
e 19 41
e 19 45
e 19 47
e 19 49
e 19 52
e 19 53
e 20 21
e 20 24
e 20 31
e 20 36
e 20 37
e 20 38
e 20 39
e 20 40
e 20 42
e 20 44
e 20 48
e 21 23
e 21 25
e 21 26
e 21 27
e 21 28
e 21 29
e 21 34
e 21 41
e 21 46
e 21 47
e 21 49
e 21 50
e 21 52
e 21 55
e 21 57
e 21 59
e 21 60
e 22 24
e 22 30
e 22 35
e 22 36
e 22 37
e 22 40
e 22 42
e 22 44
e 22 54
e 22 56
e 23 30
e 23 32
e 23 37
e 23 38
e 23 40
e 23 44
e 23 48
e 23 54
e 23 58
e 24 26
e 24 29
e 24 33
e 24 41
e 24 43
e 24 45
e 24 46
e 24 51
e 24 52
e 24 53
e 24 55
e 24 57
e 24 59
e 25 30
e 25 32
e 25 36
e 25 40
e 25 44
e 25 48
e 25 56
e 26 30
e 26 35
e 26 36
e 26 39
e 26 44
e 26 48
e 26 54
e 26 56
e 26 58
e 27 31
e 27 35
e 27 36
e 27 42
e 27 48
e 27 54
e 27 58
e 28 30
e 28 35
e 28 36
e 28 37
e 28 38
e 28 40
e 28 48
e 28 58
e 29 31
e 29 32
e 29 35
e 29 36
e 29 42
e 29 56
e 29 58
e 30 33
e 30 34
e 30 41
e 30 43
e 30 45
e 30 46
e 30 47
e 30 50
e 30 52
e 30 53
e 30 55
e 30 59
e 30 60
e 31 33
e 31 34
e 31 43
e 31 45
e 31 46
e 31 49
e 31 51
e 31 53
e 31 59
e 31 60
e 32 41
e 32 43
e 32 46
e 32 47
e 32 49
e 32 50
e 32 52
e 32 57
e 32 60
e 33 37
e 33 38
e 33 44
e 33 58
e 34 35
e 34 36
e 34 38
e 34 39
e 34 40
e 34 42
e 34 48
e 34 54
e 34 58
e 35 41
e 35 45
e 35 46
e 35 49
e 35 52
e 35 53
e 35 59
e 35 60
e 36 41
e 36 45
e 36 47
e 36 50
e 36 51
e 36 52
e 36 53
e 36 57
e 36 59
e 36 60
e 37 43
e 37 45
e 37 50
e 37 57
e 38 41
e 38 43
e 38 47
e 38 50
e 38 51
e 38 52
e 38 57
e 38 60
e 39 41
e 39 45
e 39 46
e 39 49
e 39 51
e 39 52
e 39 53
e 39 55
e 39 57
e 40 43
e 40 45
e 40 50
e 40 51
e 40 52
e 40 55
e 40 60
e 41 42
e 41 48
e 41 56
e 42 43
e 42 46
e 42 47
e 42 49
e 42 51
e 42 53
e 42 59
e 43 54
e 43 58
e 44 47
e 44 50
e 44 51
e 44 52
e 44 53
e 44 60
e 45 48
e 45 54
e 45 56
e 45 58
e 46 54
e 46 56
e 46 58
e 47 56
e 48 51
e 48 52
e 48 53
e 48 55
e 48 57
e 48 60
e 49 56
e 50 54
e 50 56
e 50 58
e 51 58
e 52 54
e 52 56
e 52 58
e 53 58
e 54 55
e 54 60
e 55 56
e 56 59
e 57 58
e 58 59
e 58 60
